(declare-const c_0 Real)
(declare-const c_1 Real)
(declare-const c_2 Real)
(declare-const c_3 Real)
(declare-const c_4 Real)
(declare-const c_5 Real)
(declare-const c_6 Real)
(declare-const c_7 Real)
(declare-const c_8 Real)
(declare-const c_9 Real)
(declare-const c_10 Real)
(declare-const c_11 Real)
(declare-const c_12 Real)
(declare-const c_13 Real)
(declare-const c_14 Real)
(declare-const c_15 Real)
(declare-const c_16 Real)
(declare-const c_17 Real)
(declare-const c_18 Real)
(declare-const c_19 Real)
(declare-const c_20 Real)
(declare-const c_21 Real)
(declare-const c_22 Real)
(declare-const c_23 Real)
(declare-const c_24 Real)
(declare-const c_25 Real)
(declare-const c_26 Real)
(declare-const c_27 Real)
(declare-const c_28 Real)
(declare-const c_29 Real)
(declare-const c_30 Real)
(declare-const c_31 Real)
(declare-const c_32 Real)
(declare-const c_33 Real)
(declare-const c_34 Real)
(declare-const c_35 Real)
(declare-const c_36 Real)
(declare-const c_37 Real)
(declare-const c_38 Real)
(declare-const c_39 Real)
(declare-const c_40 Real)
(declare-const c_41 Real)
(declare-const c_42 Real)
(declare-const c_43 Real)
(declare-const c_44 Real)
(declare-const s_0 Real)
(declare-const s_1 Real)
(declare-const s_2 Real)
(declare-const s_3 Real)
(declare-const s_4 Real)
(declare-const s_5 Real)
(declare-const s_6 Real)
(declare-const s_7 Real)
(declare-const s_8 Real)
(declare-const s_9 Real)
(declare-const s_10 Real)
(declare-const s_11 Real)
(declare-const s_12 Real)
(declare-const s_13 Real)
(declare-const s_14 Real)
(declare-const s_15 Real)
(declare-const s_16 Real)
(declare-const s_17 Real)
(declare-const s_18 Real)
(declare-const s_19 Real)
(declare-const s_20 Real)
(declare-const s_21 Real)
(declare-const s_22 Real)
(declare-const s_23 Real)
(declare-const s_24 Real)
(declare-const s_25 Real)
(declare-const s_26 Real)
(declare-const s_27 Real)
(declare-const s_28 Real)
(declare-const s_29 Real)
(declare-const s_30 Real)
(declare-const s_31 Real)
(declare-const s_32 Real)
(declare-const s_33 Real)
(declare-const s_34 Real)
(declare-const s_35 Real)
(declare-const s_36 Real)
(declare-const s_37 Real)
(declare-const s_38 Real)
(declare-const s_39 Real)
(declare-const s_40 Real)
(declare-const s_41 Real)
(declare-const s_42 Real)
(declare-const s_43 Real)
(declare-const s_44 Real)
(assert (forall ((res Real) (min Real) (x Real) (y Real) ) (=> (and (>= (+ (* 1024 1) (* 1 res ) ) 0) (>= (+ (* 1023 1) (* (- 1) res ) ) 0) (>= (+ (* 1024 1) (* 1 min ) ) 0) (>= (+ (* 1023 1) (* (- 1) min ) ) 0) (>= (+ (* 1024 1) (* 1 x ) ) 0) (>= (+ (* 1023 1) (* (- 1) x ) ) 0) (>= (+ (* 1024 1) (* 1 y ) ) 0) (>= (+ (* 1023 1) (* (- 1) y ) ) 0) ) (>= (+ (* 1 min res s_2 ) (* 1 min s_1 ) (* 1 min s_3 x ) (* 1 min s_4 y ) (* 1 min min s_5 ) (* 1 res s_6 ) (* 1 res s_7 x ) (* 1 res s_8 y ) (* 1 res res s_9 ) (* 1 s_0 ) (* 1 s_10 x ) (* 1 s_11 x y ) (* 1 s_12 x x ) (* 1 s_13 y ) (* 1 s_14 y y ) ) 0) )))
(assert (forall ((res Real) (min Real) (x Real) (y Real) ) (=> (and (>= (+ (* 1024 1) (* 1 res ) ) 0) (>= (+ (* 1023 1) (* (- 1) res ) ) 0) (>= (+ (* 1024 1) (* 1 min ) ) 0) (>= (+ (* 1023 1) (* (- 1) min ) ) 0) (>= (+ (* 1024 1) (* 1 x ) ) 0) (>= (+ (* 1023 1) (* (- 1) x ) ) 0) (>= (+ (* 1024 1) (* 1 y ) ) 0) (>= (+ (* 1023 1) (* (- 1) y ) ) 0) ) (>= (+ (* 1 c_0 ) (* 1 c_1 min ) (* 1 c_10 x ) (* 1 c_11 x y ) (* 1 c_12 x x ) (* 1 c_13 y ) (* 1 c_14 y y ) (* 1 c_2 min res ) (* 1 c_3 min x ) (* 1 c_4 min y ) (* 1 c_5 min min ) (* 1 c_6 res ) (* 1 c_7 res x ) (* 1 c_8 res y ) (* 1 c_9 res res ) ) 0) )))
(assert (forall ((res Real) (min Real) (x Real) (y Real) ) (=> (and (>= (+ (* (- 1) 1) (* (- 1) x ) (* 1 y ) ) 0) (>= (+ (* 1023 1) (* (- 1) y ) ) 0) (>= (+ (* 1024 1) (* 1 y ) ) 0) (>= (+ (* 1023 1) (* (- 1) x ) ) 0) (>= (+ (* 1024 1) (* 1 x ) ) 0) (>= (+ (* 1023 1) (* (- 1) min ) ) 0) (>= (+ (* 1024 1) (* 1 min ) ) 0) (>= (+ (* 1023 1) (* (- 1) res ) ) 0) (>= (+ (* 1024 1) (* 1 res ) ) 0) (>= (+ (* 1 min res s_2 ) (* 1 min s_1 ) (* 1 min s_3 x ) (* 1 min s_4 y ) (* 1 min min s_5 ) (* 1 res s_6 ) (* 1 res s_7 x ) (* 1 res s_8 y ) (* 1 res res s_9 ) (* 1 s_0 ) (* 1 s_10 x ) (* 1 s_11 x y ) (* 1 s_12 x x ) (* 1 s_13 y ) (* 1 s_14 y y ) ) 0) ) (>= (+ (* 1 s_15 ) (* 1 s_16 x ) (* 1 s_18 x x ) (* 1 s_19 x y ) (* 1 s_20 x x ) (* 1 s_25 x ) (* 1 s_26 x y ) (* 1 s_27 x x ) (* 1 s_28 y ) (* 1 s_29 y y ) ) 0) )))
(assert (forall ((res Real) (min Real) (x Real) (y Real) ) (=> (and (>= (+ (* (- 1) 1) (* (- 1) x ) (* 1 y ) ) 0) (>= (+ (* 1023 1) (* (- 1) y ) ) 0) (>= (+ (* 1024 1) (* 1 y ) ) 0) (>= (+ (* 1023 1) (* (- 1) x ) ) 0) (>= (+ (* 1024 1) (* 1 x ) ) 0) (>= (+ (* 1023 1) (* (- 1) min ) ) 0) (>= (+ (* 1024 1) (* 1 min ) ) 0) (>= (+ (* 1023 1) (* (- 1) res ) ) 0) (>= (+ (* 1024 1) (* 1 res ) ) 0) (>= (+ (* 1 min res s_2 ) (* 1 min s_1 ) (* 1 min s_3 x ) (* 1 min s_4 y ) (* 1 min min s_5 ) (* 1 res s_6 ) (* 1 res s_7 x ) (* 1 res s_8 y ) (* 1 res res s_9 ) (* 1 s_0 ) (* 1 s_10 x ) (* 1 s_11 x y ) (* 1 s_12 x x ) (* 1 s_13 y ) (* 1 s_14 y y ) ) 0) ) (>= (+ (* 1 c_15 ) (* 1 c_16 x ) (* 1 c_18 x x ) (* 1 c_19 x y ) (* 1 c_20 x x ) (* 1 c_25 x ) (* 1 c_26 x y ) (* 1 c_27 x x ) (* 1 c_28 y ) (* 1 c_29 y y ) ) 0) )))
(assert (forall ((res Real) (min Real) (x Real) (y Real) ) (=> (and (>= (+ (* (- 1) 1) (* (- 1) x ) (* 1 y ) ) 0) (>= (+ (* 1023 1) (* (- 1) y ) ) 0) (>= (+ (* 1024 1) (* 1 y ) ) 0) (>= (+ (* 1023 1) (* (- 1) x ) ) 0) (>= (+ (* 1024 1) (* 1 x ) ) 0) (>= (+ (* 1023 1) (* (- 1) min ) ) 0) (>= (+ (* 1024 1) (* 1 min ) ) 0) (>= (+ (* 1023 1) (* (- 1) res ) ) 0) (>= (+ (* 1024 1) (* 1 res ) ) 0) (>= (+ (* 1 min res s_2 ) (* 1 min s_1 ) (* 1 min s_3 x ) (* 1 min s_4 y ) (* 1 min min s_5 ) (* 1 res s_6 ) (* 1 res s_7 x ) (* 1 res s_8 y ) (* 1 res res s_9 ) (* 1 s_0 ) (* 1 s_10 x ) (* 1 s_11 x y ) (* 1 s_12 x x ) (* 1 s_13 y ) (* 1 s_14 y y ) ) 0) ) (>= (+ (* (- 1) 1) (* 1 c_0 ) (* 1 c_1 min ) (* 1 c_10 x ) (* 1 c_11 x y ) (* 1 c_12 x x ) (* 1 c_13 y ) (* 1 c_14 y y ) (* (- 1) c_15 ) (* (- 1) c_16 x ) (* (- 1) c_18 x x ) (* (- 1) c_19 x y ) (* 1 c_2 min res ) (* (- 1) c_20 x x ) (* (- 1) c_25 x ) (* (- 1) c_26 x y ) (* (- 1) c_27 x x ) (* (- 1) c_28 y ) (* (- 1) c_29 y y ) (* 1 c_3 min x ) (* 1 c_4 min y ) (* 1 c_5 min min ) (* 1 c_6 res ) (* 1 c_7 res x ) (* 1 c_8 res y ) (* 1 c_9 res res ) ) 0) )))
(assert (forall ((res Real) (min Real) (x Real) (y Real) ) (=> (and (>= (+ (* 1 x ) (* (- 1) y ) ) 0) (>= (+ (* 1023 1) (* (- 1) y ) ) 0) (>= (+ (* 1024 1) (* 1 y ) ) 0) (>= (+ (* 1023 1) (* (- 1) x ) ) 0) (>= (+ (* 1024 1) (* 1 x ) ) 0) (>= (+ (* 1023 1) (* (- 1) min ) ) 0) (>= (+ (* 1024 1) (* 1 min ) ) 0) (>= (+ (* 1023 1) (* (- 1) res ) ) 0) (>= (+ (* 1024 1) (* 1 res ) ) 0) (>= (+ (* 1 min res s_2 ) (* 1 min s_1 ) (* 1 min s_3 x ) (* 1 min s_4 y ) (* 1 min min s_5 ) (* 1 res s_6 ) (* 1 res s_7 x ) (* 1 res s_8 y ) (* 1 res res s_9 ) (* 1 s_0 ) (* 1 s_10 x ) (* 1 s_11 x y ) (* 1 s_12 x x ) (* 1 s_13 y ) (* 1 s_14 y y ) ) 0) ) (>= (+ (* 1 s_15 ) (* 1 s_16 y ) (* 1 s_18 x y ) (* 1 s_19 y y ) (* 1 s_20 y y ) (* 1 s_25 x ) (* 1 s_26 x y ) (* 1 s_27 x x ) (* 1 s_28 y ) (* 1 s_29 y y ) ) 0) )))
(assert (forall ((res Real) (min Real) (x Real) (y Real) ) (=> (and (>= (+ (* 1 x ) (* (- 1) y ) ) 0) (>= (+ (* 1023 1) (* (- 1) y ) ) 0) (>= (+ (* 1024 1) (* 1 y ) ) 0) (>= (+ (* 1023 1) (* (- 1) x ) ) 0) (>= (+ (* 1024 1) (* 1 x ) ) 0) (>= (+ (* 1023 1) (* (- 1) min ) ) 0) (>= (+ (* 1024 1) (* 1 min ) ) 0) (>= (+ (* 1023 1) (* (- 1) res ) ) 0) (>= (+ (* 1024 1) (* 1 res ) ) 0) (>= (+ (* 1 min res s_2 ) (* 1 min s_1 ) (* 1 min s_3 x ) (* 1 min s_4 y ) (* 1 min min s_5 ) (* 1 res s_6 ) (* 1 res s_7 x ) (* 1 res s_8 y ) (* 1 res res s_9 ) (* 1 s_0 ) (* 1 s_10 x ) (* 1 s_11 x y ) (* 1 s_12 x x ) (* 1 s_13 y ) (* 1 s_14 y y ) ) 0) ) (>= (+ (* 1 c_15 ) (* 1 c_16 y ) (* 1 c_18 x y ) (* 1 c_19 y y ) (* 1 c_20 y y ) (* 1 c_25 x ) (* 1 c_26 x y ) (* 1 c_27 x x ) (* 1 c_28 y ) (* 1 c_29 y y ) ) 0) )))
(assert (forall ((res Real) (min Real) (x Real) (y Real) ) (=> (and (>= (+ (* 1 x ) (* (- 1) y ) ) 0) (>= (+ (* 1023 1) (* (- 1) y ) ) 0) (>= (+ (* 1024 1) (* 1 y ) ) 0) (>= (+ (* 1023 1) (* (- 1) x ) ) 0) (>= (+ (* 1024 1) (* 1 x ) ) 0) (>= (+ (* 1023 1) (* (- 1) min ) ) 0) (>= (+ (* 1024 1) (* 1 min ) ) 0) (>= (+ (* 1023 1) (* (- 1) res ) ) 0) (>= (+ (* 1024 1) (* 1 res ) ) 0) (>= (+ (* 1 min res s_2 ) (* 1 min s_1 ) (* 1 min s_3 x ) (* 1 min s_4 y ) (* 1 min min s_5 ) (* 1 res s_6 ) (* 1 res s_7 x ) (* 1 res s_8 y ) (* 1 res res s_9 ) (* 1 s_0 ) (* 1 s_10 x ) (* 1 s_11 x y ) (* 1 s_12 x x ) (* 1 s_13 y ) (* 1 s_14 y y ) ) 0) ) (>= (+ (* (- 1) 1) (* 1 c_0 ) (* 1 c_1 min ) (* 1 c_10 x ) (* 1 c_11 x y ) (* 1 c_12 x x ) (* 1 c_13 y ) (* 1 c_14 y y ) (* (- 1) c_15 ) (* (- 1) c_16 y ) (* (- 1) c_18 x y ) (* (- 1) c_19 y y ) (* 1 c_2 min res ) (* (- 1) c_20 y y ) (* (- 1) c_25 x ) (* (- 1) c_26 x y ) (* (- 1) c_27 x x ) (* (- 1) c_28 y ) (* (- 1) c_29 y y ) (* 1 c_3 min x ) (* 1 c_4 min y ) (* 1 c_5 min min ) (* 1 c_6 res ) (* 1 c_7 res x ) (* 1 c_8 res y ) (* 1 c_9 res res ) ) 0) )))
(assert (forall ((res Real) (min Real) (x Real) (y Real) ) (=> (and (>= (+ (* (- 1) x ) (* 1 y ) ) 0) (>= (+ (* (- 1) min ) (* 1 y ) ) 0) (>= (+ (* 1 min ) (* (- 1) y ) ) 0) (>= (+ (* (- 1) min ) (* 1 x ) ) 0) (>= (+ (* 1023 1) (* (- 1) x ) ) 0) (>= (+ (* 1024 1) (* (- 1) res ) (* 1 y ) ) 0) (>= (+ (* 1024 1) (* 1 min ) ) 0) (>= (* 1 res ) 0) (>= (+ (* 1023 1) (* 1 min ) (* 1 res ) (* (- 1) x ) (* (- 1) y ) ) 0) (>= (+ (* 1 min res s_17 ) (* 1 min s_16 ) (* 1 min s_18 x ) (* 1 min s_19 y ) (* 1 min min s_20 ) (* 1 res s_21 ) (* 1 res s_22 x ) (* 1 res s_23 y ) (* 1 res res s_24 ) (* 1 s_15 ) (* 1 s_25 x ) (* 1 s_26 x y ) (* 1 s_27 x x ) (* 1 s_28 y ) (* 1 s_29 y y ) ) 0) ) (>= (+ (* 1 res s_17 x ) (* 1 res s_21 ) (* 1 res s_22 x ) (* 1 res s_23 ) (* 1 res s_23 y ) (* 2 res s_24 ) (* 1 res res s_24 ) (* 1 s_15 ) (* 1 s_16 x ) (* 1 s_17 x ) (* 1 s_18 x x ) (* 1 s_19 x ) (* 1 s_19 x y ) (* 1 s_20 x x ) (* 1 s_21 ) (* 1 s_22 x ) (* 1 s_23 ) (* 1 s_23 y ) (* 1 s_24 ) (* 1 s_25 x ) (* 1 s_26 x ) (* 1 s_26 x y ) (* 1 s_27 x x ) (* 1 s_28 ) (* 1 s_28 y ) (* 1 s_29 ) (* 2 s_29 y ) (* 1 s_29 y y ) ) 0) )))
(assert (forall ((res Real) (min Real) (x Real) (y Real) ) (=> (and (>= (+ (* (- 1) x ) (* 1 y ) ) 0) (>= (+ (* (- 1) min ) (* 1 y ) ) 0) (>= (+ (* 1 min ) (* (- 1) y ) ) 0) (>= (+ (* (- 1) min ) (* 1 x ) ) 0) (>= (+ (* 1023 1) (* (- 1) x ) ) 0) (>= (+ (* 1024 1) (* (- 1) res ) (* 1 y ) ) 0) (>= (+ (* 1024 1) (* 1 min ) ) 0) (>= (* 1 res ) 0) (>= (+ (* 1023 1) (* 1 min ) (* 1 res ) (* (- 1) x ) (* (- 1) y ) ) 0) (>= (+ (* 1 min res s_17 ) (* 1 min s_16 ) (* 1 min s_18 x ) (* 1 min s_19 y ) (* 1 min min s_20 ) (* 1 res s_21 ) (* 1 res s_22 x ) (* 1 res s_23 y ) (* 1 res res s_24 ) (* 1 s_15 ) (* 1 s_25 x ) (* 1 s_26 x y ) (* 1 s_27 x x ) (* 1 s_28 y ) (* 1 s_29 y y ) ) 0) ) (>= (+ (* 1 c_15 ) (* 1 c_16 x ) (* 1 c_17 res x ) (* 1 c_17 x ) (* 1 c_18 x x ) (* 1 c_19 x ) (* 1 c_19 x y ) (* 1 c_20 x x ) (* 1 c_21 ) (* 1 c_21 res ) (* 1 c_22 res x ) (* 1 c_22 x ) (* 1 c_23 ) (* 1 c_23 res ) (* 1 c_23 res y ) (* 1 c_23 y ) (* 1 c_24 ) (* 2 c_24 res ) (* 1 c_24 res res ) (* 1 c_25 x ) (* 1 c_26 x ) (* 1 c_26 x y ) (* 1 c_27 x x ) (* 1 c_28 ) (* 1 c_28 y ) (* 1 c_29 ) (* 2 c_29 y ) (* 1 c_29 y y ) ) 0) )))
(assert (forall ((res Real) (min Real) (x Real) (y Real) ) (=> (and (>= (+ (* (- 1) x ) (* 1 y ) ) 0) (>= (+ (* (- 1) min ) (* 1 y ) ) 0) (>= (+ (* 1 min ) (* (- 1) y ) ) 0) (>= (+ (* (- 1) min ) (* 1 x ) ) 0) (>= (+ (* 1023 1) (* (- 1) x ) ) 0) (>= (+ (* 1024 1) (* (- 1) res ) (* 1 y ) ) 0) (>= (+ (* 1024 1) (* 1 min ) ) 0) (>= (* 1 res ) 0) (>= (+ (* 1023 1) (* 1 min ) (* 1 res ) (* (- 1) x ) (* (- 1) y ) ) 0) (>= (+ (* 1 min res s_17 ) (* 1 min s_16 ) (* 1 min s_18 x ) (* 1 min s_19 y ) (* 1 min min s_20 ) (* 1 res s_21 ) (* 1 res s_22 x ) (* 1 res s_23 y ) (* 1 res res s_24 ) (* 1 s_15 ) (* 1 s_25 x ) (* 1 s_26 x y ) (* 1 s_27 x x ) (* 1 s_28 y ) (* 1 s_29 y y ) ) 0) ) (>= (+ (* (- 1) 1) (* 1 c_16 min ) (* (- 1) c_16 x ) (* 1 c_17 min res ) (* (- 1) c_17 res x ) (* (- 1) c_17 x ) (* 1 c_18 min x ) (* (- 1) c_18 x x ) (* 1 c_19 min y ) (* (- 1) c_19 x ) (* (- 1) c_19 x y ) (* 1 c_20 min min ) (* (- 1) c_20 x x ) (* (- 1) c_21 ) (* (- 1) c_22 x ) (* (- 1) c_23 ) (* (- 1) c_23 res ) (* (- 1) c_23 y ) (* (- 1) c_24 ) (* (- 2) c_24 res ) (* (- 1) c_26 x ) (* (- 1) c_28 ) (* (- 1) c_29 ) (* (- 2) c_29 y ) ) 0) )))
(assert (forall ((res Real) (min Real) (x Real) (y Real) ) (=> (and (>= (+ (* (- 1) 1) (* 1 x ) (* (- 1) y ) ) 0) (>= (+ (* (- 1) min ) (* 1 y ) ) 0) (>= (+ (* 1 min ) (* (- 1) y ) ) 0) (>= (+ (* (- 1) min ) (* 1 x ) ) 0) (>= (+ (* 1023 1) (* (- 1) x ) ) 0) (>= (+ (* 1024 1) (* (- 1) res ) (* 1 y ) ) 0) (>= (+ (* 1024 1) (* 1 min ) ) 0) (>= (* 1 res ) 0) (>= (+ (* 1023 1) (* 1 min ) (* 1 res ) (* (- 1) x ) (* (- 1) y ) ) 0) (>= (+ (* 1 min res s_17 ) (* 1 min s_16 ) (* 1 min s_18 x ) (* 1 min s_19 y ) (* 1 min min s_20 ) (* 1 res s_21 ) (* 1 res s_22 x ) (* 1 res s_23 y ) (* 1 res res s_24 ) (* 1 s_15 ) (* 1 s_25 x ) (* 1 s_26 x y ) (* 1 s_27 x x ) (* 1 s_28 y ) (* 1 s_29 y y ) ) 0) ) (>= (+ (* 1 res s_17 ) (* 1 res s_17 y ) (* 1 res s_21 ) (* 1 res s_22 x ) (* 1 res s_23 ) (* 1 res s_23 y ) (* 2 res s_24 ) (* 1 res res s_24 ) (* 1 s_15 ) (* 1 s_16 ) (* 1 s_16 y ) (* 1 s_17 ) (* 1 s_17 y ) (* 1 s_18 x ) (* 1 s_18 x y ) (* 1 s_19 ) (* 2 s_19 y ) (* 1 s_19 y y ) (* 1 s_20 ) (* 2 s_20 y ) (* 1 s_20 y y ) (* 1 s_21 ) (* 1 s_22 x ) (* 1 s_23 ) (* 1 s_23 y ) (* 1 s_24 ) (* 1 s_25 x ) (* 1 s_26 x ) (* 1 s_26 x y ) (* 1 s_27 x x ) (* 1 s_28 ) (* 1 s_28 y ) (* 1 s_29 ) (* 2 s_29 y ) (* 1 s_29 y y ) ) 0) )))
(assert (forall ((res Real) (min Real) (x Real) (y Real) ) (=> (and (>= (+ (* (- 1) 1) (* 1 x ) (* (- 1) y ) ) 0) (>= (+ (* (- 1) min ) (* 1 y ) ) 0) (>= (+ (* 1 min ) (* (- 1) y ) ) 0) (>= (+ (* (- 1) min ) (* 1 x ) ) 0) (>= (+ (* 1023 1) (* (- 1) x ) ) 0) (>= (+ (* 1024 1) (* (- 1) res ) (* 1 y ) ) 0) (>= (+ (* 1024 1) (* 1 min ) ) 0) (>= (* 1 res ) 0) (>= (+ (* 1023 1) (* 1 min ) (* 1 res ) (* (- 1) x ) (* (- 1) y ) ) 0) (>= (+ (* 1 min res s_17 ) (* 1 min s_16 ) (* 1 min s_18 x ) (* 1 min s_19 y ) (* 1 min min s_20 ) (* 1 res s_21 ) (* 1 res s_22 x ) (* 1 res s_23 y ) (* 1 res res s_24 ) (* 1 s_15 ) (* 1 s_25 x ) (* 1 s_26 x y ) (* 1 s_27 x x ) (* 1 s_28 y ) (* 1 s_29 y y ) ) 0) ) (>= (+ (* 1 c_15 ) (* 1 c_16 ) (* 1 c_16 y ) (* 1 c_17 ) (* 1 c_17 res ) (* 1 c_17 res y ) (* 1 c_17 y ) (* 1 c_18 x ) (* 1 c_18 x y ) (* 1 c_19 ) (* 2 c_19 y ) (* 1 c_19 y y ) (* 1 c_20 ) (* 2 c_20 y ) (* 1 c_20 y y ) (* 1 c_21 ) (* 1 c_21 res ) (* 1 c_22 res x ) (* 1 c_22 x ) (* 1 c_23 ) (* 1 c_23 res ) (* 1 c_23 res y ) (* 1 c_23 y ) (* 1 c_24 ) (* 2 c_24 res ) (* 1 c_24 res res ) (* 1 c_25 x ) (* 1 c_26 x ) (* 1 c_26 x y ) (* 1 c_27 x x ) (* 1 c_28 ) (* 1 c_28 y ) (* 1 c_29 ) (* 2 c_29 y ) (* 1 c_29 y y ) ) 0) )))
(assert (forall ((res Real) (min Real) (x Real) (y Real) ) (=> (and (>= (+ (* (- 1) 1) (* 1 x ) (* (- 1) y ) ) 0) (>= (+ (* (- 1) min ) (* 1 y ) ) 0) (>= (+ (* 1 min ) (* (- 1) y ) ) 0) (>= (+ (* (- 1) min ) (* 1 x ) ) 0) (>= (+ (* 1023 1) (* (- 1) x ) ) 0) (>= (+ (* 1024 1) (* (- 1) res ) (* 1 y ) ) 0) (>= (+ (* 1024 1) (* 1 min ) ) 0) (>= (* 1 res ) 0) (>= (+ (* 1023 1) (* 1 min ) (* 1 res ) (* (- 1) x ) (* (- 1) y ) ) 0) (>= (+ (* 1 min res s_17 ) (* 1 min s_16 ) (* 1 min s_18 x ) (* 1 min s_19 y ) (* 1 min min s_20 ) (* 1 res s_21 ) (* 1 res s_22 x ) (* 1 res s_23 y ) (* 1 res res s_24 ) (* 1 s_15 ) (* 1 s_25 x ) (* 1 s_26 x y ) (* 1 s_27 x x ) (* 1 s_28 y ) (* 1 s_29 y y ) ) 0) ) (>= (+ (* (- 1) 1) (* (- 1) c_16 ) (* 1 c_16 min ) (* (- 1) c_16 y ) (* (- 1) c_17 ) (* 1 c_17 min res ) (* (- 1) c_17 res ) (* (- 1) c_17 res y ) (* (- 1) c_17 y ) (* 1 c_18 min x ) (* (- 1) c_18 x ) (* (- 1) c_18 x y ) (* (- 1) c_19 ) (* 1 c_19 min y ) (* (- 2) c_19 y ) (* (- 1) c_19 y y ) (* (- 1) c_20 ) (* 1 c_20 min min ) (* (- 2) c_20 y ) (* (- 1) c_20 y y ) (* (- 1) c_21 ) (* (- 1) c_22 x ) (* (- 1) c_23 ) (* (- 1) c_23 res ) (* (- 1) c_23 y ) (* (- 1) c_24 ) (* (- 2) c_24 res ) (* (- 1) c_26 x ) (* (- 1) c_28 ) (* (- 1) c_29 ) (* (- 2) c_29 y ) ) 0) )))
(assert (forall ((res Real) (min Real) (x Real) (y Real) ) (=> (and (>= (+ (* (- 1) 1) (* 1 min ) (* (- 1) y ) ) 0) (>= (+ (* (- 1) min ) (* 1 x ) ) 0) (>= (+ (* 1023 1) (* (- 1) x ) ) 0) (>= (+ (* 1024 1) (* (- 1) res ) (* 1 y ) ) 0) (>= (+ (* (- 1) min ) (* 1 y ) ) 0) (>= (+ (* 1024 1) (* 1 min ) ) 0) (>= (* 1 res ) 0) (>= (+ (* 1023 1) (* 1 min ) (* 1 res ) (* (- 1) x ) (* (- 1) y ) ) 0) (>= (+ (* 1 min res s_17 ) (* 1 min s_16 ) (* 1 min s_18 x ) (* 1 min s_19 y ) (* 1 min min s_20 ) (* 1 res s_21 ) (* 1 res s_22 x ) (* 1 res s_23 y ) (* 1 res res s_24 ) (* 1 s_15 ) (* 1 s_25 x ) (* 1 s_26 x y ) (* 1 s_27 x x ) (* 1 s_28 y ) (* 1 s_29 y y ) ) 0) ) (>= (+ (* 1 min res s_32 ) (* 1 min s_31 ) (* 1 min s_33 x ) (* 1 min s_34 y ) (* 1 min min s_35 ) (* 1 res s_36 ) (* 1 res s_37 x ) (* 1 res s_38 y ) (* 1 res res s_39 ) (* 1 s_30 ) (* 1 s_40 x ) (* 1 s_41 x y ) (* 1 s_42 x x ) (* 1 s_43 y ) (* 1 s_44 y y ) ) 0) )))
(assert (forall ((res Real) (min Real) (x Real) (y Real) ) (=> (and (>= (+ (* (- 1) 1) (* 1 min ) (* (- 1) y ) ) 0) (>= (+ (* (- 1) min ) (* 1 x ) ) 0) (>= (+ (* 1023 1) (* (- 1) x ) ) 0) (>= (+ (* 1024 1) (* (- 1) res ) (* 1 y ) ) 0) (>= (+ (* (- 1) min ) (* 1 y ) ) 0) (>= (+ (* 1024 1) (* 1 min ) ) 0) (>= (* 1 res ) 0) (>= (+ (* 1023 1) (* 1 min ) (* 1 res ) (* (- 1) x ) (* (- 1) y ) ) 0) (>= (+ (* 1 min res s_17 ) (* 1 min s_16 ) (* 1 min s_18 x ) (* 1 min s_19 y ) (* 1 min min s_20 ) (* 1 res s_21 ) (* 1 res s_22 x ) (* 1 res s_23 y ) (* 1 res res s_24 ) (* 1 s_15 ) (* 1 s_25 x ) (* 1 s_26 x y ) (* 1 s_27 x x ) (* 1 s_28 y ) (* 1 s_29 y y ) ) 0) ) (>= (+ (* 1 c_30 ) (* 1 c_31 min ) (* 1 c_32 min res ) (* 1 c_33 min x ) (* 1 c_34 min y ) (* 1 c_35 min min ) (* 1 c_36 res ) (* 1 c_37 res x ) (* 1 c_38 res y ) (* 1 c_39 res res ) (* 1 c_40 x ) (* 1 c_41 x y ) (* 1 c_42 x x ) (* 1 c_43 y ) (* 1 c_44 y y ) ) 0) )))
(assert (forall ((res Real) (min Real) (x Real) (y Real) ) (=> (and (>= (+ (* (- 1) 1) (* (- 1) min ) (* 1 y ) ) 0) (>= (+ (* (- 1) min ) (* 1 x ) ) 0) (>= (+ (* 1023 1) (* (- 1) x ) ) 0) (>= (+ (* 1024 1) (* (- 1) res ) (* 1 y ) ) 0) (>= (+ (* (- 1) min ) (* 1 y ) ) 0) (>= (+ (* 1024 1) (* 1 min ) ) 0) (>= (* 1 res ) 0) (>= (+ (* 1023 1) (* 1 min ) (* 1 res ) (* (- 1) x ) (* (- 1) y ) ) 0) (>= (+ (* 1 min res s_17 ) (* 1 min s_16 ) (* 1 min s_18 x ) (* 1 min s_19 y ) (* 1 min min s_20 ) (* 1 res s_21 ) (* 1 res s_22 x ) (* 1 res s_23 y ) (* 1 res res s_24 ) (* 1 s_15 ) (* 1 s_25 x ) (* 1 s_26 x y ) (* 1 s_27 x x ) (* 1 s_28 y ) (* 1 s_29 y y ) ) 0) ) (>= (+ (* 1 min res s_32 ) (* 1 min s_31 ) (* 1 min s_33 x ) (* 1 min s_34 y ) (* 1 min min s_35 ) (* 1 res s_36 ) (* 1 res s_37 x ) (* 1 res s_38 y ) (* 1 res res s_39 ) (* 1 s_30 ) (* 1 s_40 x ) (* 1 s_41 x y ) (* 1 s_42 x x ) (* 1 s_43 y ) (* 1 s_44 y y ) ) 0) )))
(assert (forall ((res Real) (min Real) (x Real) (y Real) ) (=> (and (>= (+ (* (- 1) 1) (* (- 1) min ) (* 1 y ) ) 0) (>= (+ (* (- 1) min ) (* 1 x ) ) 0) (>= (+ (* 1023 1) (* (- 1) x ) ) 0) (>= (+ (* 1024 1) (* (- 1) res ) (* 1 y ) ) 0) (>= (+ (* (- 1) min ) (* 1 y ) ) 0) (>= (+ (* 1024 1) (* 1 min ) ) 0) (>= (* 1 res ) 0) (>= (+ (* 1023 1) (* 1 min ) (* 1 res ) (* (- 1) x ) (* (- 1) y ) ) 0) (>= (+ (* 1 min res s_17 ) (* 1 min s_16 ) (* 1 min s_18 x ) (* 1 min s_19 y ) (* 1 min min s_20 ) (* 1 res s_21 ) (* 1 res s_22 x ) (* 1 res s_23 y ) (* 1 res res s_24 ) (* 1 s_15 ) (* 1 s_25 x ) (* 1 s_26 x y ) (* 1 s_27 x x ) (* 1 s_28 y ) (* 1 s_29 y y ) ) 0) ) (>= (+ (* 1 c_30 ) (* 1 c_31 min ) (* 1 c_32 min res ) (* 1 c_33 min x ) (* 1 c_34 min y ) (* 1 c_35 min min ) (* 1 c_36 res ) (* 1 c_37 res x ) (* 1 c_38 res y ) (* 1 c_39 res res ) (* 1 c_40 x ) (* 1 c_41 x y ) (* 1 c_42 x x ) (* 1 c_43 y ) (* 1 c_44 y y ) ) 0) )))

(check-sat)
(get-model)
